(declare-rel h1 (Int) )
(declare-rel h2 (Int Int) )
(declare-rel h3 (Int Int Int) )
(declare-rel inv4 (Int Int Int Int Int) )
(declare-rel h4 (Int Int Int Int Int) )
(declare-rel h5 (Int Int Int Int Int) )
(declare-var v Int)
(declare-var i Int)
(declare-var va Int)
(declare-var vb Int)
(declare-var i2 Int)
( rule (=> ( = v 5.0 ) ( h1 v ) ))
( rule (=> ( and ( h1 v ) ( = i 9.0 )) ( h2 v i )))
( rule (=> ( and ( h2 v i ) ( = va ( + v 1.0 ) )) ( h3 v i va )))
( rule (=> ( and ( inv4 v i va vb i2 )  ( not( < va 10.0 ) ) ) ( h4 v i va vb i2 )))
( rule (=> ( h3 v i va ) ( inv4 v i va vb i2 )))
( rule (=> ( and ( inv4 v i va vb i2 ) ( and ( < va 10.0 ) ( => ( and ( or ( and ( = va 6.0 ) ( or ( and ( = i 10.0 ) ( = vb 7.0 ) )( and  ( not( = i 10.0 ) ) ( = vb 8.0 )) ) )( and  ( not( = va 6.0 ) ) ( => ( and ( = vb ( + va 1.0 ) )( = va vb )) )( = i2 ( + i 1.0 ) ) ) ) ( inv4 v i va vb i2 ) ))
( rule (=> ( and ( h4 v i va vb i2 )  ( not( = va 10.0 ) )) ( h5 v i va vb i2 )))